28853
1,12,20,26,29,46,64,74,76,85,89,96,106,113,120,147,157,163,164,169,203,204,211,233,242,265,268,271,273,274,292,294,302,307,323,375,384,391,422,423,432,472,475,479,483,490,498,505,524,538,546,562,567,574,583,584,589,597,605,606,607,637,659,663,665,668,675,694,721,724,739,757,758,764,767,833,838,842,849,851,852,855,883,892,895,909,921,926,938,946,952,958,959,986,988,1001,1007,1078,1097,1100,1105,1146,1149,1159,1167,1170,1186,1187,1189,1193,1196,1198,1203,1205,1206,1220,1224,1261,1267,1273,1286,1302,1309,1314,1338,1344,1345,1351,1353,1369,1376,1379,1385,1406,1411,1416,1436,1445,1451,1463,1464,1467,1471,1472,1474,1486,1491,1540,1550,1555,1561,1567,1572,1599,1605,1614,1615,1617,1623,1633,1637,1644,1648,1656,1657,1660,1676,1679,1681,1689,1690,1695,1710,1731,1733,1759,1774,1834,1835,1849,1853,1874,1877,1890,1899,1942,1945,1968,1978,1984,1993
